sat
(:max-memory         18.42
 :memory             18.33
 :nlsat-arith-var    4
 :nlsat-atoms        3
 :nlsat-bool-var     1
 :nlsat-clauses      3
 :nlsat-propagations 3
 :nlsat-stages       5
 :num-allocs         50632
 :rlimit-count       762
 :time               0.00
 :total-time         0.02)
